c Generated map
c Size: 12 * 12, weights in range: 1 to 10, walls: True, with ratio 0.05
c dim 1 of 5
c
p sp 144 240
c graph contains 144 nodes and 240 arcs
c
a 1 13 2
a 13 1 2
a 1 2 8
a 2 1 8
a 2 14 9
a 14 2 9
a 2 3 7
a 3 2 7
a 3 15 4
a 15 3 4
a 3 4 9
a 4 3 9
a 4 16 3
a 16 4 3
a 4 5 3
a 5 4 3
a 5 17 4
a 17 5 4
a 5 6 1
a 6 5 1
a 6 18 4
a 18 6 4
a 6 7 8
a 7 6 8
a 7 19 6
a 19 7 6
a 7 8 7
a 8 7 7
a 8 20 6
a 20 8 6
a 8 9 3
a 9 8 3
a 9 21 3
a 21 9 3
a 9 10 3
a 10 9 3
a 10 22 10
a 22 10 10
a 10 11 6
a 11 10 6
a 11 23 6
a 23 11 6
a 11 12 9
a 12 11 9
a 12 24 2
a 24 12 2
a 13 25 10
a 25 13 10
a 13 14 2
a 14 13 2
a 14 26 2
a 26 14 2
a 14 15 6
a 15 14 6
a 15 16 4
a 16 15 4
a 16 17 6
a 17 16 6
a 17 29 4
a 29 17 4
a 17 18 7
a 18 17 7
a 18 30 10
a 30 18 10
a 18 19 8
a 19 18 8
a 19 31 4
a 31 19 4
a 19 20 8
a 20 19 8
a 20 32 10
a 32 20 10
a 20 21 7
a 21 20 7
a 21 33 1
a 33 21 1
a 21 22 7
a 22 21 7
a 22 34 1
a 34 22 1
a 22 23 2
a 23 22 2
a 23 35 10
a 35 23 10
a 23 24 7
a 24 23 7
a 24 36 3
a 36 24 3
a 25 37 9
a 37 25 9
a 25 26 4
a 26 25 4
a 26 38 7
a 38 26 7
a 29 41 4
a 41 29 4
a 29 30 3
a 30 29 3
a 30 42 8
a 42 30 8
a 30 31 4
a 31 30 4
a 31 43 3
a 43 31 3
a 31 32 7
a 32 31 7
a 32 44 7
a 44 32 7
a 32 33 4
a 33 32 4
a 33 45 1
a 45 33 1
a 33 34 10
a 34 33 10
a 34 46 10
a 46 34 10
a 34 35 8
a 35 34 8
a 35 47 3
a 47 35 3
a 35 36 7
a 36 35 7
a 36 48 9
a 48 36 9
a 37 49 8
a 49 37 8
a 37 38 4
a 38 37 4
a 38 50 3
a 50 38 3
a 38 39 2
a 39 38 2
a 39 51 6
a 51 39 6
a 39 40 5
a 40 39 5
a 40 52 4
a 52 40 4
a 40 41 8
a 41 40 8
a 41 53 1
a 53 41 1
a 41 42 6
a 42 41 6
a 42 54 5
a 54 42 5
a 42 43 1
a 43 42 1
a 43 55 3
a 55 43 3
a 43 44 10
a 44 43 10
a 44 56 2
a 56 44 2
a 44 45 8
a 45 44 8
a 45 57 8
a 57 45 8
a 45 46 8
a 46 45 8
a 46 58 2
a 58 46 2
a 46 47 4
a 47 46 4
a 47 59 9
a 59 47 9
a 47 48 10
a 48 47 10
a 48 60 5
a 60 48 5
a 49 50 8
a 50 49 8
a 50 62 5
a 62 50 5
a 50 51 7
a 51 50 7
a 51 63 5
a 63 51 5
a 51 52 9
a 52 51 9
a 52 64 7
a 64 52 7
a 52 53 8
a 53 52 8
a 53 65 2
a 65 53 2
a 53 54 3
a 54 53 3
a 54 66 8
a 66 54 8
a 54 55 7
a 55 54 7
a 55 56 7
a 56 55 7
a 56 68 2
a 68 56 2
a 56 57 1
a 57 56 1
a 57 69 10
a 69 57 10
a 57 58 7
a 58 57 7
a 58 70 10
a 70 58 10
a 58 59 5
a 59 58 5
a 59 71 4
a 71 59 4
a 59 60 8
a 60 59 8
a 60 72 7
a 72 60 7
a 62 74 7
a 74 62 7
a 62 63 4
a 63 62 4
a 63 75 9
a 75 63 9
a 63 64 10
a 64 63 10
a 64 76 10
a 76 64 10
a 64 65 10
a 65 64 10
a 65 77 5
a 77 65 5
a 65 66 9
a 66 65 9
a 66 78 4
a 78 66 4
a 68 80 1
a 80 68 1
a 68 69 10
a 69 68 10
a 69 81 9
a 81 69 9
a 69 70 4
a 70 69 4
a 70 82 3
a 82 70 3
a 70 71 3
a 71 70 3
a 71 83 3
a 83 71 3
a 71 72 8
a 72 71 8
a 72 84 7
a 84 72 7
a 73 85 1
a 85 73 1
a 73 74 2
a 74 73 2
a 74 86 1
a 86 74 1
a 74 75 4
a 75 74 4
a 75 87 2
a 87 75 2
a 75 76 4
a 76 75 4
a 76 88 9
a 88 76 9
a 76 77 3
a 77 76 3
a 77 89 3
a 89 77 3
a 77 78 9
a 78 77 9
a 78 90 5
a 90 78 5
a 78 79 6
a 79 78 6
a 79 91 5
a 91 79 5
a 79 80 6
a 80 79 6
a 80 92 6
a 92 80 6
a 80 81 10
a 81 80 10
a 81 93 6
a 93 81 6
a 81 82 4
a 82 81 4
a 82 83 4
a 83 82 4
a 83 95 10
a 95 83 10
a 83 84 1
a 84 83 1
a 84 96 9
a 96 84 9
a 85 97 1
a 97 85 1
a 85 86 10
a 86 85 10
a 86 98 2
a 98 86 2
a 86 87 7
a 87 86 7
a 87 99 1
a 99 87 1
a 87 88 10
a 88 87 10
a 88 100 8
a 100 88 8
a 88 89 6
a 89 88 6
a 89 101 8
a 101 89 8
a 89 90 10
a 90 89 10
a 90 102 7
a 102 90 7
a 90 91 2
a 91 90 2
a 91 103 10
a 103 91 10
a 91 92 4
a 92 91 4
a 92 104 1
a 104 92 1
a 92 93 6
a 93 92 6
a 93 105 3
a 105 93 3
a 95 107 2
a 107 95 2
a 95 96 10
a 96 95 10
a 96 108 10
a 108 96 10
a 97 109 6
a 109 97 6
a 97 98 1
a 98 97 1
a 98 110 1
a 110 98 1
a 98 99 7
a 99 98 7
a 99 111 4
a 111 99 4
a 99 100 9
a 100 99 9
a 100 112 3
a 112 100 3
a 100 101 6
a 101 100 6
a 101 113 5
a 113 101 5
a 101 102 8
a 102 101 8
a 102 114 4
a 114 102 4
a 102 103 7
a 103 102 7
a 103 115 3
a 115 103 3
a 103 104 5
a 104 103 5
a 104 116 2
a 116 104 2
a 104 105 3
a 105 104 3
a 105 117 7
a 117 105 7
a 105 106 7
a 106 105 7
a 106 118 3
a 118 106 3
a 106 107 4
a 107 106 4
a 107 119 7
a 119 107 7
a 107 108 9
a 108 107 9
a 108 120 9
a 120 108 9
a 109 121 6
a 121 109 6
a 109 110 3
a 110 109 3
a 110 122 10
a 122 110 10
a 110 111 1
a 111 110 1
a 111 123 1
a 123 111 1
a 111 112 5
a 112 111 5
a 112 124 5
a 124 112 5
a 112 113 10
a 113 112 10
a 113 125 3
a 125 113 3
a 113 114 2
a 114 113 2
a 114 126 10
a 126 114 10
a 114 115 7
a 115 114 7
a 115 127 2
a 127 115 2
a 115 116 7
a 116 115 7
a 116 117 2
a 117 116 2
a 117 129 2
a 129 117 2
a 117 118 4
a 118 117 4
a 118 130 6
a 130 118 6
a 118 119 6
a 119 118 6
a 119 131 3
a 131 119 3
a 119 120 6
a 120 119 6
a 120 132 5
a 132 120 5
a 121 122 2
a 122 121 2
a 122 134 7
a 134 122 7
a 122 123 1
a 123 122 1
a 123 135 6
a 135 123 6
a 123 124 6
a 124 123 6
a 124 136 9
a 136 124 9
a 124 125 2
a 125 124 2
a 125 137 3
a 137 125 3
a 125 126 10
a 126 125 10
a 126 138 1
a 138 126 1
a 126 127 4
a 127 126 4
a 127 139 8
a 139 127 8
a 129 141 5
a 141 129 5
a 129 130 1
a 130 129 1
a 130 142 8
a 142 130 8
a 130 131 7
a 131 130 7
a 131 143 10
a 143 131 10
a 131 132 10
a 132 131 10
a 132 144 1
a 144 132 1
a 134 135 5
a 135 134 5
a 135 136 1
a 136 135 1
a 136 137 3
a 137 136 3
a 137 138 9
a 138 137 9
a 138 139 10
a 139 138 10
a 139 140 9
a 140 139 9
a 140 141 10
a 141 140 10
a 141 142 5
a 142 141 5
a 142 143 3
a 143 142 3
a 143 144 4
a 144 143 4
